# Solution for model problem_
# Objective value = 62845.3955884699
x(0_0) 0
x(0_1) 0
x(0_2) 0
x(0_3) 0
x(0_4) 0
x(0_5) 1
x(0_6) 0
x(0_7) 0
x(0_8) 0
x(0_9) 0
x(1_10) 0
x(1_11) 0
x(1_12) 0
x(1_13) 0
x(1_14) 0
x(1_15) 0
x(1_16) 0
x(1_17) 0
x(1_18) 0
x(1_19) 0
x(1_20) 0
x(1_21) 1
x(1_22) 0
x(1_23) 0
x(1_24) 0
x(1_25) 0
x(1_26) 0
x(1_27) 0
x(2_28) 0
x(2_29) 0
x(2_30) 0
x(2_31) 0
x(2_32) 0
x(2_33) 0
x(2_34) 1
x(2_35) 0
x(2_36) 0
x(2_37) 0
x(3_38) 0
x(3_39) 0
x(3_40) 0
x(3_41) 1
x(3_42) 0
x(3_43) 0
x(3_44) 0
x(3_45) 0
x(3_46) 0
x(3_47) 0
x(3_48) 0
x(3_49) 0
x(4_50) 0
x(4_51) 0
x(4_52) 0
x(4_53) 0
x(4_54) 0
x(4_55) 0
x(4_56) 0
x(4_57) 0
x(4_58) 0
x(4_59) 0
x(4_60) 0
x(4_61) 0
x(4_62) 0
x(4_63) 0
x(4_64) 0
x(4_65) 0
x(4_66) 0
x(4_67) 1
x(5_68) 0
x(5_69) 0
x(5_70) 1
x(5_71) 0
x(5_72) 0
x(5_73) 0
x(5_74) 0
x(5_75) 0
x(5_76) 0
x(5_77) 0
x(5_78) 0
x(5_79) 0
x(5_80) 0
x(5_81) 0
x(5_82) 0
x(5_83) 0
x(5_84) 0
x(5_85) 0
x(6_86) 1
x(6_87) 0
x(6_88) 0
x(6_89) 0
x(6_90) 0
x(6_91) 0
x(6_92) 0
x(6_93) 0
x(6_94) 0
x(6_95) 0
x(6_96) 0
x(6_97) 0
x(6_98) 0
x(6_99) 0
x(6_100) 0
x(6_101) 0
x(6_102) 0
x(7_103) 1
x(7_104) 0
x(7_105) 0
x(7_106) 0
x(7_107) 0
x(7_108) 0
x(7_109) 0
x(7_110) 0
x(7_111) 0
x(7_112) 0
x(7_113) 0
x(7_114) 0
x(7_115) 0
x(7_116) 0
x(8_117) 0
x(8_118) 0
x(8_119) 0
x(8_120) 0
x(8_121) 1
x(8_122) 0
x(8_123) 0
x(8_124) 0
x(8_125) 0
x(8_126) 0
x(8_127) 0
x(8_128) 0
x(8_129) 0
x(9_130) 0
x(9_131) 0
x(9_132) 1
x(9_133) 0
x(9_134) 0
x(9_135) 0
x(9_136) 0
x(9_137) 0
x(9_138) 0
x(9_139) 0
x(9_140) 0
x(10_141) 0
x(10_142) 0
x(10_143) 0
x(10_144) 0
x(10_145) 0
x(10_146) 0
x(10_147) 0
x(10_148) 0
x(10_149) 1
x(10_150) 0
x(10_151) 0
x(11_152) 0
x(11_153) 0
x(11_154) 0
x(11_155) 0
x(11_156) 0
x(11_157) 0
x(11_158) 0
x(11_159) 0
x(11_160) 0
x(11_161) 0
x(11_162) 0
x(11_163) 0
x(11_164) 1
x(11_165) 0
x(11_166) 0
x(11_167) 0
x(12_168) 0
x(12_169) 0
x(12_170) 0
x(12_171) 0
x(12_172) 0
x(12_173) 1
x(12_174) 0
x(12_175) 0
x(12_176) 0
x(12_177) 0
x(12_178) 0
x(12_179) 0
x(13_180) 0
x(13_181) 0
x(13_182) 0
x(13_183) 0
x(13_184) 0
x(13_185) 0
x(13_186) 0
x(13_187) 1
x(13_188) 0
x(13_189) 0
x(13_190) 0
x(14_191) 1
x(14_192) 0
x(14_193) 0
x(14_194) 0
x(14_195) 0
x(14_196) 0
x(14_197) 0
x(14_198) 0
x(14_199) 0
x(14_200) 0
x(14_201) 0
x(14_202) 0
x(14_203) 0
x(14_204) 0
x(14_205) 0
x(14_206) 0
x(14_207) 0
x(14_208) 0
x(15_209) 0
x(15_210) 0
x(15_211) 0
x(15_212) 0
x(15_213) 0
x(15_214) 0
x(15_215) 0
x(15_216) 0
x(15_217) 0
x(15_218) 1
x(15_219) 0
x(15_220) 0
x(15_221) 0
x(15_222) 0
x(15_223) 0
x(15_224) 0
x(15_225) 0
x(16_226) 0
x(16_227) 0
x(16_228) 0
x(16_229) 0
x(16_230) 0
x(16_231) 0
x(16_232) 0
x(16_233) 1
x(16_234) 0
x(16_235) 0
x(16_236) 0
x(17_237) 0
x(17_238) 0
x(17_239) 0
x(17_240) 0
x(17_241) 0
x(17_242) 0
x(17_243) 0
x(17_244) 0
x(17_245) 0
x(17_246) 0
x(17_247) 0
x(17_248) 0
x(17_249) 0
x(17_250) 0
x(17_251) 0
x(17_252) 0
x(17_253) 0
x(17_254) 0
x(17_255) 0
x(17_256) 1
x(18_257) 0
x(18_258) 0
x(18_259) 0
x(18_260) 0
x(18_261) 0
x(18_262) 0
x(18_263) 0
x(18_264) 0
x(18_265) 0
x(18_266) 1
x(18_267) 0
x(18_268) 0
x(18_269) 0
x(18_270) 0
x(19_271) 0
x(19_272) 0
x(19_273) 0
x(19_274) 0
x(19_275) 0
x(19_276) 0
x(19_277) 1
x(19_278) 0
x(19_279) 0
x(19_280) 0
x(19_281) 0
x(19_282) 0
x(19_283) 0
x(19_284) 0
x(19_285) 0
x(19_286) 0
x(19_287) 0
x(19_288) 0
x(20_289) 1
x(20_290) 0
x(20_291) 0
x(20_292) 0
x(20_293) 0
x(20_294) 0
x(20_295) 0
x(20_296) 0
x(20_297) 0
x(20_298) 0
x(20_299) 0
x(20_300) 0
x(20_301) 0
x(20_302) 0
x(20_303) 0
x(20_304) 0
x(20_305) 0
x(21_306) 1
x(21_307) 0
x(21_308) 0
x(21_309) 0
x(21_310) 0
x(21_311) 0
x(21_312) 0
x(21_313) 0
x(21_314) 0
x(21_315) 0
x(21_316) 0
x(21_317) 0
x(21_318) 0
x(21_319) 0
x(21_320) 0
x(21_321) 0
x(21_322) 0
x(21_323) 0
x(21_324) 0
x(22_325) 0
x(22_326) 0
x(22_327) 0
x(22_328) 0
x(22_329) 0
x(22_330) 0
x(22_331) 0
x(22_332) 0
x(22_333) 0
x(22_334) 0
x(22_335) 0
x(22_336) 0
x(22_337) 0
x(22_338) 0
x(22_339) 0
x(22_340) 1
x(22_341) 0
x(22_342) 0
x(22_343) 0
x(22_344) 0
x_1_0 0
s_1_0 9.1244167624972761e-01
z_1_0 1
x_1_1 9.7852034091949463e+01
s_1_1 0
z_1_1 0
x_1_2 0
s_1_2 8.3091022178996354e-01
z_1_2 1
x_1_3 0
s_1_3 6.2702359538525343e-01
z_1_3 1
x_1_4 9.9778135776519775e+01
s_1_4 0
z_1_4 0
x_1_5 9.9241271734237671e+01
s_1_5 0
z_1_5 0
x_1_6 1.0020541763305664e+02
s_1_6 0
z_1_6 0
x_1_7 0
s_1_7 5.8163768355734646e-01
z_1_7 1
x_1_8 1.0084405541419983e+02
s_1_8 0
z_1_8 0
x_1_9 0
s_1_9 0.787293397821486
z_1_9 1
x_1_10 0
s_1_10 0.654792761662975
z_1_10 1
x_1_11 9.9293662071228027e+01
s_1_11 0
z_1_11 0
x_1_12 0
s_1_12 3.6687706627208172e-01
z_1_12 1
x_1_13 0
s_1_13 8.8001973915379494e-01
z_1_13 1
x_1_14 1.0013730907440186e+02
s_1_14 0
z_1_14 0
x_1_15 0
s_1_15 7.8112095087999478e-01
z_1_15 1
x_1_16 9.9794616937637329e+01
s_1_16 0
z_1_16 0
x_1_17 0
s_1_17 4.2674023821018636e-01
z_1_17 1
x_1_18 1.0084252238273621e+02
s_1_18 0
z_1_18 0
x_1_19 0
s_1_19 8.9227411488536745e-01
z_1_19 1
x_1_20 0
s_1_20 1.1515065003186464e+00
z_1_20 1
x_1_21 1.0078750157356262e+02
s_1_21 0
z_1_21 0
x_1_22 9.9510481357574463e+01
s_1_22 0
z_1_22 0
x_1_23 9.9204260587692261e+01
s_1_23 0
z_1_23 0
x_1_24 0
s_1_24 7.2968032397329807e-01
z_1_24 1
x_1_25 9.9678469181060791e+01
s_1_25 0
z_1_25 0
x_1_26 1.0064377069473267e+02
s_1_26 0
z_1_26 0
x_1_27 9.8875410795211792e+01
s_1_27 0
z_1_27 0
x_1_28 1.0068795394897461e+02
s_1_28 0
z_1_28 0
x_1_29 1.0059412407875061e+02
s_1_29 0
z_1_29 0
x_1_30 0
s_1_30 1.1607021498493850e+00
z_1_30 1
x_1_31 0
s_1_31 7.7840160136111081e-01
z_1_31 1
x_1_32 1.0068542361259460e+02
s_1_32 0
z_1_32 0
x_1_33 0
s_1_33 5.4268575576134026e-01
z_1_33 1
x_1_34 1.0064324784278870e+02
s_1_34 0
z_1_34 0
x_1_35 9.9558936119079590e+01
s_1_35 0
z_1_35 0
x_1_36 1.0018146395683289e+02
s_1_36 0
z_1_36 0
x_1_37 1.0058885979652405e+02
s_1_37 0
z_1_37 0
x_1_38 9.9659032821655273e+01
s_1_38 0
z_1_38 0
x_1_39 0
s_1_39 7.9781885724514723e-01
z_1_39 1
x_1_40 9.8665534019470215e+01
s_1_40 0
z_1_40 0
x_1_41 0
s_1_41 8.1326214480213821e-01
z_1_41 1
x_1_42 0
s_1_42 7.8115360299125314e-01
z_1_42 1
x_1_43 1.0027814221382141e+02
s_1_43 0
z_1_43 0
x_1_44 0
s_1_44 6.4772000699304044e-01
z_1_44 1
x_1_45 9.9672732830047607e+01
s_1_45 0
z_1_45 0
x_1_46 9.8631969690322876e+01
s_1_46 0
z_1_46 0
x_1_47 1.0057137680053711e+02
s_1_47 0
z_1_47 0
x_1_48 9.9600290298461914e+01
s_1_48 0
z_1_48 0
x_1_49 1.0071635389328003e+02
s_1_49 0
z_1_49 0
x_1_50 9.9710107326507568e+01
s_1_50 0
z_1_50 0
x_1_51 1.0008934068679810e+02
s_1_51 0
z_1_51 0
x_1_52 0
s_1_52 7.4250014778226614e-01
z_1_52 1
x_1_53 1.0041331911087036e+02
s_1_53 0
z_1_53 0
x_1_54 9.9768279075622559e+01
s_1_54 0
z_1_54 0
x_1_55 0
s_1_55 1.1921831623185426e+00
z_1_55 1
x_1_56 1.0062580251693726e+02
s_1_56 0
z_1_56 0
x_1_57 1.0101573371887207e+02
s_1_57 0
z_1_57 0
x_1_58 0
s_1_58 6.9781330227851868e-01
z_1_58 1
x_1_59 9.9248400926589966e+01
s_1_59 0
z_1_59 0
x_1_60 99.5743818283081
s_1_60 0
z_1_60 0
x_1_61 0
s_1_61 7.5485399633180350e-01
z_1_61 1
x_1_62 0
s_1_62 1.0318337545904797e+00
z_1_62 1
x_1_63 0
s_1_63 7.0245786300802138e-01
z_1_63 1
x_1_64 1.0070522713661194e+02
s_1_64 0
z_1_64 0
x_1_65 1.0031178569793701e+02
s_1_65 0
z_1_65 0
x_1_66 1.0022612166404724e+02
s_1_66 0
z_1_66 0
x_1_67 0
s_1_67 9.3661719956435263e-01
z_1_67 1
x_1_68 1.0058263278007507e+02
s_1_68 0
z_1_68 0
x_1_69 9.9339749813079834e+01
s_1_69 0
z_1_69 0
x_1_70 1.0023297905921936e+02
s_1_70 0
z_1_70 0
x_1_71 9.9610250949859619e+01
s_1_71 0
z_1_71 0
x_1_72 9.9221686840057373e+01
s_1_72 0
z_1_72 0
x_1_73 0
s_1_73 1.0336804538965225e+00
z_1_73 1
x_1_74 0
s_1_74 9.2132030284847133e-01
z_1_74 1
x_1_75 0
s_1_75 0.868469113484025
z_1_75 1
x_1_76 1.0054892563819885e+02
s_1_76 0
z_1_76 0
x_1_77 1.0033793473243713e+02
s_1_77 0
z_1_77 0
x_1_78 0
s_1_78 4.6854185406118631e-01
z_1_78 1
x_1_79 0
s_1_79 1.0184881644672714e+00
z_1_79 1
x_1_80 9.9878771781921387e+01
s_1_80 0
z_1_80 0
x_1_81 0
s_1_81 5.5686116358265281e-01
z_1_81 1
x_1_82 97.5880184173584
s_1_82 0
z_1_82 0
x_1_83 9.9366916894912720e+01
s_1_83 0
z_1_83 0
x_1_84 1.0068903398513794e+02
s_1_84 0
z_1_84 0
x_1_85 1.0010699844360352e+02
s_1_85 0
z_1_85 0
x_1_86 9.9539437294006348e+01
s_1_86 0
z_1_86 0
x_1_87 9.9993963479995728e+01
s_1_87 0
z_1_87 0
x_1_88 9.9486074686050415e+01
s_1_88 0
z_1_88 0
x_1_89 1.0009569573402405e+02
s_1_89 0
z_1_89 0
x_1_90 1.0080767178535461e+02
s_1_90 0
z_1_90 0
x_1_91 0
s_1_91 8.9850283786654472e-01
z_1_91 1
x_1_92 0
s_1_92 8.2668885274324566e-01
z_1_92 1
x_1_93 0
s_1_93 6.1780994152650237e-01
z_1_93 1
x_1_94 1.0066188645362854e+02
s_1_94 0
z_1_94 0
x_1_95 0
s_1_95 0.742161454865709
z_1_95 1
x_1_96 9.9767765045166016e+01
s_1_96 0
z_1_96 0
x_1_97 99.7898359298706
s_1_97 0
z_1_97 0
x_1_98 0
s_1_98 7.8127743955701590e-01
z_1_98 1
x_1_99 9.9689869165420532e+01
s_1_99 0
z_1_99 0
x_1_100 1.0001951718330383e+02
s_1_100 0
z_1_100 0
x_1_101 0
s_1_101 9.0822611283510923e-01
z_1_101 1
x_1_102 0
s_1_102 9.8333744145929813e-01
z_1_102 1
x_1_103 0
s_1_103 7.7132363989949226e-01
z_1_103 1
x_1_104 1.0074814987182617e+02
s_1_104 0
z_1_104 0
x_1_105 9.9916480302810669e+01
s_1_105 0
z_1_105 0
x_1_106 9.9906383275985718e+01
s_1_106 0
z_1_106 0
x_1_107 99.8709945678711
s_1_107 0
z_1_107 0
x_1_108 0
s_1_108 8.8965559611096978e-01
z_1_108 1
x_1_109 1.0093778705596924e+02
s_1_109 0
z_1_109 0
x_1_110 9.9460386037826538e+01
s_1_110 0
z_1_110 0
x_1_111 9.7392875194549561e+01
s_1_111 0
z_1_111 0
x_1_112 1.0051632261276245e+02
s_1_112 0
z_1_112 0
x_1_113 9.9701722383499146e+01
s_1_113 0
z_1_113 0
x_1_114 1.0091376805305481e+02
s_1_114 0
z_1_114 0
x_1_115 1.0058705163002014e+02
s_1_115 0
z_1_115 0
x_1_116 1.0091165947914124e+02
s_1_116 0
z_1_116 0
x_1_117 0
s_1_117 7.4409422185271978e-01
z_1_117 1
x_1_118 1.0077027201652527e+02
s_1_118 0
z_1_118 0
x_1_119 9.9894136190414429e+01
s_1_119 0
z_1_119 0
x_1_120 1.0061901021003723e+02
s_1_120 0
z_1_120 0
x_1_121 1.0017087054252625e+02
s_1_121 0
z_1_121 0
x_1_122 9.9756154298782349e+01
s_1_122 0
z_1_122 0
x_1_123 9.9514961481094360e+01
s_1_123 0
z_1_123 0
x_1_124 9.9509582519531250e+01
s_1_124 0
z_1_124 0
x_1_125 1.0050659871101379e+02
s_1_125 0
z_1_125 0
x_1_126 1.0063386297225952e+02
s_1_126 0
z_1_126 0
x_1_127 1.0048345947265625e+02
s_1_127 0
z_1_127 0
x_1_128 1.0045579504966736e+02
s_1_128 0
z_1_128 0
x_1_129 1.0015793108940125e+02
s_1_129 0
z_1_129 0
x_1_130 9.9443024635314941e+01
s_1_130 0
z_1_130 0
x_1_131 0
s_1_131 6.6319190687499940e-01
z_1_131 1
x_1_132 9.9511327981948853e+01
s_1_132 0
z_1_132 0
x_1_133 9.9894112110137939e+01
s_1_133 0
z_1_133 0
x_1_134 1.0038962888717651e+02
s_1_134 0
z_1_134 0
x_1_135 0
s_1_135 7.0986081426963210e-01
z_1_135 1
x_1_136 0
s_1_136 1.22035832866095
z_1_136 1
x_1_137 9.9939259529113770e+01
s_1_137 0
z_1_137 0
x_1_138 1.0005686426162720e+02
s_1_138 0
z_1_138 0
x_1_139 9.9702906608581543e+01
s_1_139 0
z_1_139 0
x_1_140 1.0052815842628479e+02
s_1_140 0
z_1_140 0
x_1_141 9.9975564956665039e+01
s_1_141 0
z_1_141 0
x_1_142 0
s_1_142 5.4595840582624078e-01
z_1_142 1
x_1_143 0
s_1_143 5.0928148999810219e-01
z_1_143 1
x_1_144 1.0064603900909424e+02
s_1_144 0
z_1_144 0
x_1_145 9.9034489154815674e+01
s_1_145 0
z_1_145 0
x_1_146 9.9948155164718628e+01
s_1_146 0
z_1_146 0
x_1_147 0
s_1_147 7.3627405846491456e-01
z_1_147 1
x_1_148 0
s_1_148 8.4435470250900835e-01
z_1_148 1
x_1_149 1.0070020866394043e+02
s_1_149 0
z_1_149 0
x_1_150 0
s_1_150 0.777099481667392
z_1_150 1
x_1_151 9.7231172084808350e+01
s_1_151 0
z_1_151 0
x_1_152 1.0038577508926392e+02
s_1_152 0
z_1_152 0
x_1_153 0
s_1_153 8.7561497930437326e-01
z_1_153 1
x_1_154 1.0096396541595459e+02
s_1_154 0
z_1_154 0
x_1_155 9.9620785474777222e+01
s_1_155 0
z_1_155 0
x_1_156 1.0012931132316589e+02
s_1_156 0
z_1_156 0
x_1_157 9.9190838336944580e+01
s_1_157 0
z_1_157 0
x_1_158 1.0016654515266418e+02
s_1_158 0
z_1_158 0
x_1_159 9.9480227708816528e+01
s_1_159 0
z_1_159 0
x_2_0 62442.9485884699
